NAME : OMNETRUN
COMMENT : 524.61
TYPE : CVRP
DIMENSION : 21
EDGE_WEIGHT_TYPE : EUC_2D
CAPACITY : 21
NODE_COORD_SECTION
1 0.107093 -0.77924
2 83.3911 -2545.68
3 10.0421 -3497.18
4 78.1907 -3873.87
5 107.707 -4230.71
6 6.10001 -4838.61
7 280.583 -657.873
8 337.197 -1235.22
9 287.321 -2182.04
10 352.956 -2828.48
11 353.736 -3361.95
12 476.281 -3992.86
13 298.501 -4563.99
14 255.104 -5475.57
15 382.068 -5958.51
16 715.073 -474.404
17 733.044 -917.491
18 530.382 -2444.95
19 685.904 -3493.62
20 713.677 -4446.45
21 624.662 -5128.87
DEMAND_SECTION
1 0
2 1
3 1
4 1
5 1
6 1
7 1
8 1
9 1
10 1
11 1
12 1
13 1
14 1
15 1
16 1
17 1
18 1
19 1
20 1
21 1
DEPOT_SECTION
1
-1
EOF
